2051736
9 12 50022
12 11 123742
11 5 43367
5 20 53722
20 6 207524
6 10 253563
10 16 21151
16 4 223221
4 19 238490
19 15 105167
15 8 67784
8 14 61570
14 18 103707
18 3 140190
3 1 117658
1 7 35813
7 2 108023
2 17 23709
17 13 27808
13 9 45505
